c nombre: 23
c densidad: 0.3
p edges 100 1459
e 1 3
e 1 5
e 1 7
e 1 12
e 1 15
e 1 16
e 1 19
e 1 23
e 1 24
e 1 26
e 1 27
e 1 29
e 1 34
e 1 36
e 1 38
e 1 39
e 1 43
e 1 44
e 1 47
e 1 48
e 1 53
e 1 58
e 1 62
e 1 65
e 1 67
e 1 70
e 1 73
e 1 77
e 1 81
e 1 84
e 1 87
e 1 88
e 1 91
e 1 92
e 1 95
e 1 96
e 1 98
e 2 4
e 2 5
e 2 7
e 2 10
e 2 12
e 2 16
e 2 18
e 2 23
e 2 25
e 2 26
e 2 28
e 2 29
e 2 35
e 2 36
e 2 38
e 2 42
e 2 43
e 2 44
e 2 49
e 2 57
e 2 58
e 2 59
e 2 60
e 2 63
e 2 66
e 2 68
e 2 76
e 2 79
e 2 84
e 2 86
e 2 87
e 2 89
e 2 92
e 2 94
e 2 95
e 3 8
e 3 22
e 3 23
e 3 25
e 3 33
e 3 35
e 3 41
e 3 45
e 3 49
e 3 50
e 3 53
e 3 60
e 3 61
e 3 64
e 3 69
e 3 70
e 3 72
e 3 75
e 3 79
e 3 84
e 3 85
e 3 89
e 3 91
e 3 98
e 4 11
e 4 12
e 4 17
e 4 22
e 4 30
e 4 31
e 4 35
e 4 44
e 4 45
e 4 46
e 4 50
e 4 52
e 4 55
e 4 60
e 4 66
e 4 67
e 4 72
e 4 74
e 4 75
e 4 79
e 4 82
e 4 83
e 4 84
e 4 89
e 4 92
e 4 93
e 4 100
e 5 14
e 5 18
e 5 22
e 5 24
e 5 31
e 5 32
e 5 33
e 5 35
e 5 36
e 5 37
e 5 40
e 5 44
e 5 50
e 5 59
e 5 60
e 5 61
e 5 62
e 5 63
e 5 64
e 5 66
e 5 68
e 5 69
e 5 70
e 5 74
e 5 76
e 5 77
e 5 80
e 5 84
e 5 89
e 5 92
e 5 93
e 5 94
e 5 95
e 5 96
e 6 9
e 6 10
e 6 12
e 6 16
e 6 17
e 6 22
e 6 23
e 6 36
e 6 40
e 6 49
e 6 57
e 6 58
e 6 59
e 6 62
e 6 66
e 6 76
e 6 79
e 6 81
e 6 85
e 6 86
e 6 87
e 6 89
e 6 96
e 6 98
e 7 14
e 7 17
e 7 21
e 7 29
e 7 40
e 7 43
e 7 44
e 7 53
e 7 55
e 7 61
e 7 62
e 7 66
e 7 70
e 7 76
e 7 81
e 7 82
e 7 84
e 7 88
e 7 89
e 7 91
e 7 94
e 7 95
e 7 97
e 8 13
e 8 18
e 8 22
e 8 24
e 8 27
e 8 28
e 8 29
e 8 44
e 8 45
e 8 46
e 8 54
e 8 58
e 8 66
e 8 70
e 8 71
e 8 72
e 8 76
e 8 77
e 8 78
e 8 82
e 8 88
e 8 91
e 8 93
e 8 95
e 8 100
e 9 18
e 9 20
e 9 24
e 9 26
e 9 28
e 9 31
e 9 34
e 9 36
e 9 38
e 9 40
e 9 44
e 9 45
e 9 52
e 9 53
e 9 56
e 9 59
e 9 63
e 9 64
e 9 67
e 9 74
e 9 80
e 9 81
e 9 84
e 9 85
e 9 89
e 9 93
e 9 95
e 9 99
e 10 14
e 10 23
e 10 24
e 10 28
e 10 29
e 10 30
e 10 36
e 10 41
e 10 43
e 10 44
e 10 46
e 10 51
e 10 52
e 10 53
e 10 58
e 10 59
e 10 61
e 10 64
e 10 66
e 10 69
e 10 76
e 10 80
e 10 85
e 10 89
e 10 92
e 11 14
e 11 15
e 11 18
e 11 19
e 11 34
e 11 35
e 11 43
e 11 46
e 11 47
e 11 48
e 11 50
e 11 51
e 11 55
e 11 58
e 11 59
e 11 62
e 11 63
e 11 65
e 11 67
e 11 76
e 11 80
e 11 84
e 11 88
e 11 91
e 12 14
e 12 15
e 12 19
e 12 20
e 12 21
e 12 23
e 12 25
e 12 30
e 12 32
e 12 34
e 12 38
e 12 40
e 12 42
e 12 45
e 12 46
e 12 51
e 12 54
e 12 57
e 12 64
e 12 68
e 12 73
e 12 74
e 12 77
e 12 91
e 12 92
e 12 93
e 12 99
e 13 16
e 13 17
e 13 21
e 13 22
e 13 26
e 13 31
e 13 38
e 13 39
e 13 41
e 13 42
e 13 43
e 13 45
e 13 48
e 13 58
e 13 61
e 13 62
e 13 63
e 13 65
e 13 80
e 13 81
e 13 84
e 13 91
e 13 94
e 13 100
e 14 15
e 14 22
e 14 27
e 14 32
e 14 33
e 14 36
e 14 39
e 14 40
e 14 44
e 14 45
e 14 48
e 14 56
e 14 63
e 14 68
e 14 74
e 14 75
e 14 76
e 14 79
e 14 81
e 14 82
e 14 89
e 14 91
e 14 94
e 14 95
e 14 97
e 15 23
e 15 25
e 15 28
e 15 34
e 15 37
e 15 38
e 15 49
e 15 51
e 15 53
e 15 54
e 15 55
e 15 57
e 15 60
e 15 61
e 15 66
e 15 69
e 15 70
e 15 77
e 15 81
e 15 83
e 15 88
e 15 89
e 15 91
e 16 21
e 16 22
e 16 26
e 16 28
e 16 30
e 16 37
e 16 39
e 16 42
e 16 43
e 16 44
e 16 46
e 16 49
e 16 52
e 16 64
e 16 68
e 16 73
e 16 74
e 16 82
e 16 87
e 16 88
e 16 90
e 16 97
e 17 24
e 17 25
e 17 26
e 17 42
e 17 43
e 17 45
e 17 51
e 17 52
e 17 55
e 17 62
e 17 63
e 17 64
e 17 65
e 17 67
e 17 68
e 17 80
e 17 83
e 17 89
e 17 90
e 17 91
e 17 94
e 17 100
e 18 24
e 18 26
e 18 27
e 18 31
e 18 39
e 18 44
e 18 47
e 18 52
e 18 53
e 18 60
e 18 64
e 18 67
e 18 68
e 18 70
e 18 72
e 18 74
e 18 80
e 18 84
e 18 85
e 18 90
e 18 91
e 18 95
e 18 98
e 19 21
e 19 22
e 19 24
e 19 33
e 19 46
e 19 47
e 19 50
e 19 53
e 19 54
e 19 57
e 19 62
e 19 63
e 19 65
e 19 70
e 19 71
e 19 75
e 19 76
e 19 78
e 19 81
e 19 83
e 19 84
e 19 95
e 19 98
e 20 21
e 20 25
e 20 28
e 20 39
e 20 40
e 20 41
e 20 50
e 20 57
e 20 61
e 20 64
e 20 69
e 20 73
e 20 76
e 20 80
e 20 93
e 20 94
e 20 96
e 20 98
e 21 23
e 21 25
e 21 30
e 21 35
e 21 40
e 21 41
e 21 42
e 21 49
e 21 51
e 21 54
e 21 55
e 21 57
e 21 58
e 21 59
e 21 61
e 21 62
e 21 66
e 21 68
e 21 69
e 21 73
e 21 74
e 21 75
e 21 81
e 21 89
e 21 93
e 21 95
e 21 96
e 22 25
e 22 31
e 22 34
e 22 36
e 22 37
e 22 38
e 22 39
e 22 41
e 22 42
e 22 47
e 22 52
e 22 54
e 22 59
e 22 60
e 22 63
e 22 64
e 22 82
e 22 84
e 22 85
e 22 87
e 22 89
e 22 91
e 22 94
e 22 95
e 22 96
e 23 25
e 23 26
e 23 28
e 23 33
e 23 35
e 23 36
e 23 37
e 23 38
e 23 39
e 23 41
e 23 42
e 23 45
e 23 47
e 23 50
e 23 51
e 23 53
e 23 56
e 23 59
e 23 61
e 23 65
e 23 68
e 23 69
e 23 76
e 23 78
e 23 85
e 23 86
e 23 89
e 23 92
e 23 98
e 23 99
e 24 25
e 24 29
e 24 30
e 24 31
e 24 32
e 24 33
e 24 43
e 24 45
e 24 46
e 24 47
e 24 53
e 24 56
e 24 57
e 24 58
e 24 59
e 24 61
e 24 62
e 24 66
e 24 67
e 24 70
e 24 79
e 24 88
e 24 93
e 24 94
e 24 95
e 24 96
e 24 98
e 25 26
e 25 28
e 25 30
e 25 32
e 25 33
e 25 36
e 25 42
e 25 47
e 25 50
e 25 55
e 25 56
e 25 57
e 25 59
e 25 62
e 25 63
e 25 69
e 25 74
e 25 75
e 25 78
e 25 84
e 25 85
e 25 87
e 25 88
e 25 91
e 25 92
e 25 94
e 25 96
e 26 29
e 26 32
e 26 34
e 26 37
e 26 42
e 26 47
e 26 54
e 26 59
e 26 63
e 26 67
e 26 72
e 26 75
e 26 76
e 26 78
e 26 82
e 26 85
e 26 87
e 26 92
e 26 93
e 26 94
e 26 100
e 27 29
e 27 32
e 27 34
e 27 39
e 27 43
e 27 44
e 27 45
e 27 46
e 27 47
e 27 49
e 27 52
e 27 55
e 27 57
e 27 58
e 27 59
e 27 60
e 27 62
e 27 66
e 27 68
e 27 71
e 27 78
e 27 79
e 27 85
e 27 87
e 27 88
e 27 89
e 27 97
e 27 98
e 27 99
e 28 30
e 28 40
e 28 43
e 28 53
e 28 59
e 28 63
e 28 65
e 28 69
e 28 71
e 28 76
e 28 78
e 28 83
e 28 87
e 28 92
e 28 93
e 28 94
e 29 30
e 29 35
e 29 36
e 29 38
e 29 39
e 29 40
e 29 43
e 29 45
e 29 47
e 29 49
e 29 55
e 29 56
e 29 57
e 29 58
e 29 60
e 29 61
e 29 62
e 29 64
e 29 69
e 29 72
e 29 76
e 29 78
e 29 83
e 29 98
e 30 38
e 30 39
e 30 40
e 30 43
e 30 48
e 30 52
e 30 54
e 30 56
e 30 61
e 30 62
e 30 63
e 30 64
e 30 70
e 30 76
e 30 78
e 30 82
e 30 89
e 30 90
e 30 92
e 30 97
e 30 100
e 31 34
e 31 35
e 31 36
e 31 40
e 31 43
e 31 44
e 31 45
e 31 49
e 31 50
e 31 52
e 31 54
e 31 56
e 31 58
e 31 59
e 31 64
e 31 70
e 31 77
e 31 78
e 31 80
e 31 86
e 31 88
e 31 89
e 31 90
e 31 91
e 31 95
e 31 96
e 32 36
e 32 37
e 32 40
e 32 42
e 32 48
e 32 57
e 32 58
e 32 60
e 32 65
e 32 68
e 32 75
e 32 82
e 32 90
e 32 96
e 32 97
e 33 34
e 33 37
e 33 43
e 33 44
e 33 45
e 33 46
e 33 50
e 33 51
e 33 55
e 33 61
e 33 62
e 33 65
e 33 74
e 33 85
e 33 86
e 33 91
e 33 96
e 34 35
e 34 40
e 34 41
e 34 42
e 34 46
e 34 55
e 34 58
e 34 61
e 34 66
e 34 67
e 34 73
e 34 79
e 34 84
e 34 85
e 34 86
e 34 93
e 34 94
e 34 95
e 34 96
e 34 97
e 35 42
e 35 44
e 35 48
e 35 52
e 35 54
e 35 56
e 35 61
e 35 65
e 35 67
e 35 74
e 35 76
e 35 78
e 35 89
e 35 90
e 35 91
e 35 94
e 35 95
e 35 97
e 35 98
e 36 39
e 36 41
e 36 44
e 36 46
e 36 51
e 36 53
e 36 55
e 36 57
e 36 58
e 36 67
e 36 73
e 36 74
e 36 76
e 36 78
e 36 79
e 36 83
e 36 84
e 36 85
e 36 86
e 36 90
e 37 39
e 37 41
e 37 44
e 37 48
e 37 51
e 37 55
e 37 62
e 37 63
e 37 64
e 37 70
e 37 71
e 37 78
e 37 83
e 37 85
e 37 87
e 37 88
e 37 91
e 37 92
e 37 93
e 37 94
e 38 42
e 38 46
e 38 48
e 38 55
e 38 57
e 38 60
e 38 61
e 38 65
e 38 66
e 38 67
e 38 74
e 38 75
e 38 78
e 38 82
e 38 84
e 38 85
e 38 88
e 38 90
e 38 97
e 39 42
e 39 43
e 39 45
e 39 47
e 39 52
e 39 53
e 39 55
e 39 57
e 39 59
e 39 60
e 39 65
e 39 66
e 39 71
e 39 72
e 39 79
e 39 85
e 39 86
e 39 88
e 39 94
e 40 44
e 40 45
e 40 48
e 40 50
e 40 52
e 40 55
e 40 57
e 40 64
e 40 69
e 40 70
e 40 72
e 40 75
e 40 76
e 40 78
e 40 79
e 40 82
e 40 84
e 40 88
e 40 92
e 40 93
e 40 95
e 41 42
e 41 45
e 41 48
e 41 49
e 41 50
e 41 51
e 41 54
e 41 57
e 41 63
e 41 69
e 41 71
e 41 74
e 41 76
e 41 79
e 41 84
e 41 90
e 41 91
e 41 93
e 41 96
e 41 97
e 42 43
e 42 45
e 42 46
e 42 49
e 42 56
e 42 63
e 42 66
e 42 69
e 42 81
e 42 89
e 42 98
e 42 100
e 43 46
e 43 51
e 43 52
e 43 54
e 43 58
e 43 60
e 43 62
e 43 66
e 43 70
e 43 78
e 43 79
e 43 86
e 43 89
e 43 92
e 43 94
e 43 99
e 43 100
e 44 45
e 44 47
e 44 49
e 44 55
e 44 60
e 44 64
e 44 65
e 44 75
e 44 80
e 44 85
e 44 87
e 44 90
e 44 95
e 44 96
e 44 99
e 45 49
e 45 52
e 45 54
e 45 57
e 45 58
e 45 68
e 45 71
e 45 72
e 45 75
e 45 79
e 45 80
e 45 83
e 45 86
e 45 90
e 45 96
e 45 100
e 46 49
e 46 55
e 46 59
e 46 66
e 46 67
e 46 73
e 46 74
e 46 81
e 46 83
e 46 85
e 46 89
e 46 90
e 46 99
e 47 50
e 47 52
e 47 58
e 47 59
e 47 61
e 47 75
e 47 76
e 47 79
e 47 81
e 47 82
e 47 86
e 47 89
e 47 92
e 47 99
e 48 49
e 48 51
e 48 57
e 48 60
e 48 66
e 48 73
e 48 75
e 48 78
e 48 80
e 48 85
e 48 89
e 48 92
e 48 93
e 48 99
e 48 100
e 49 54
e 49 57
e 49 61
e 49 62
e 49 65
e 49 66
e 49 71
e 49 75
e 49 76
e 49 82
e 49 86
e 49 91
e 49 94
e 49 96
e 49 97
e 50 55
e 50 58
e 50 60
e 50 61
e 50 73
e 50 79
e 50 80
e 50 86
e 50 87
e 50 88
e 50 89
e 50 100
e 51 53
e 51 55
e 51 59
e 51 63
e 51 67
e 51 70
e 51 72
e 51 74
e 51 77
e 51 82
e 51 88
e 51 93
e 51 95
e 51 97
e 51 99
e 52 56
e 52 57
e 52 60
e 52 61
e 52 69
e 52 74
e 52 75
e 52 80
e 52 84
e 52 89
e 52 90
e 52 95
e 52 96
e 52 100
e 53 55
e 53 57
e 53 63
e 53 67
e 53 68
e 53 73
e 53 75
e 53 77
e 53 81
e 53 86
e 53 87
e 53 90
e 53 95
e 53 96
e 53 97
e 53 100
e 54 56
e 54 62
e 54 63
e 54 67
e 54 70
e 54 74
e 54 77
e 54 78
e 54 86
e 54 87
e 54 90
e 54 91
e 54 95
e 54 96
e 55 61
e 55 62
e 55 69
e 55 73
e 55 75
e 55 76
e 55 80
e 55 89
e 55 91
e 55 97
e 56 73
e 56 83
e 56 84
e 56 85
e 56 86
e 56 91
e 56 94
e 56 95
e 56 99
e 57 64
e 57 65
e 57 66
e 57 72
e 57 76
e 57 78
e 57 80
e 57 83
e 57 84
e 57 85
e 57 86
e 57 90
e 57 91
e 57 95
e 58 60
e 58 65
e 58 73
e 58 74
e 58 85
e 58 97
e 58 98
e 58 99
e 59 60
e 59 61
e 59 62
e 59 63
e 59 64
e 59 75
e 59 76
e 59 82
e 59 83
e 59 88
e 59 92
e 59 95
e 59 97
e 59 98
e 59 99
e 60 61
e 60 62
e 60 67
e 60 69
e 60 73
e 60 76
e 60 81
e 60 84
e 60 89
e 60 90
e 60 91
e 60 95
e 60 97
e 60 100
e 61 63
e 61 70
e 61 71
e 61 72
e 61 83
e 61 85
e 61 87
e 61 88
e 61 92
e 61 93
e 62 66
e 62 70
e 62 71
e 62 72
e 62 76
e 62 91
e 62 93
e 62 96
e 63 69
e 63 72
e 63 75
e 63 76
e 63 77
e 63 89
e 63 90
e 63 91
e 63 99
e 63 100
e 64 67
e 64 70
e 64 77
e 64 78
e 64 86
e 64 93
e 64 96
e 65 69
e 65 71
e 65 76
e 65 79
e 65 80
e 65 82
e 65 83
e 65 91
e 65 92
e 65 96
e 65 97
e 65 100
e 66 70
e 66 71
e 66 75
e 66 77
e 66 80
e 66 81
e 66 82
e 66 88
e 66 90
e 66 92
e 66 93
e 67 76
e 67 86
e 67 91
e 67 93
e 67 97
e 67 99
e 68 69
e 68 70
e 68 74
e 68 76
e 68 79
e 68 82
e 68 83
e 68 85
e 68 88
e 68 89
e 68 92
e 68 97
e 68 100
e 69 73
e 69 78
e 69 81
e 69 85
e 69 88
e 69 96
e 69 98
e 69 99
e 69 100
e 70 71
e 70 73
e 70 74
e 70 75
e 70 79
e 70 83
e 70 86
e 70 88
e 70 90
e 70 94
e 70 99
e 71 73
e 71 79
e 71 84
e 71 86
e 71 91
e 71 99
e 71 100
e 72 85
e 72 90
e 72 94
e 72 99
e 72 100
e 73 75
e 73 76
e 73 79
e 73 85
e 73 91
e 73 93
e 73 97
e 73 99
e 74 82
e 74 85
e 74 87
e 74 94
e 74 96
e 74 97
e 74 98
e 75 80
e 75 84
e 75 90
e 75 92
e 75 95
e 75 100
e 76 79
e 76 81
e 76 82
e 76 87
e 76 89
e 76 94
e 76 98
e 76 99
e 77 79
e 77 85
e 77 90
e 77 97
e 77 100
e 78 79
e 78 82
e 78 83
e 78 87
e 78 93
e 78 95
e 78 96
e 78 99
e 79 83
e 79 85
e 79 87
e 79 88
e 79 89
e 79 92
e 79 94
e 79 97
e 79 98
e 80 82
e 80 83
e 80 84
e 80 85
e 80 88
e 80 95
e 80 98
e 80 99
e 81 84
e 81 89
e 81 93
e 81 95
e 81 97
e 81 99
e 81 100
e 82 83
e 82 90
e 82 93
e 82 94
e 84 87
e 84 88
e 84 90
e 84 92
e 84 94
e 84 99
e 85 86
e 85 93
e 85 96
e 85 100
e 86 87
e 86 88
e 86 89
e 86 90
e 86 91
e 86 94
e 86 95
e 87 89
e 87 95
e 87 96
e 87 97
e 87 98
e 87 99
e 88 98
e 88 99
e 89 92
e 89 93
e 89 95
e 90 92
e 90 94
e 90 97
e 90 99
e 91 92
e 91 97
e 92 93
e 92 95
e 92 100
e 93 98
e 94 95
e 94 97
e 94 99
e 95 96
e 95 98
e 96 97
e 97 99
e 98 99
